Week_3/Quiz_week_3/Quiz_week_3.lp.sol
# Solution for model basic_model
# Objective value = 3645
X0 0
X1 90
X2 115
X3 140
X4 110
X5 200
Y0 0
Y1 0
Y2 0
Y3 0
Y4 0
Y5 0
